p cnf 391 1639
1 -2 0
2 -1 0
3 -4 0
4 -3 0
5 -6 0
6 -5 0
7 -8 0
8 -7 0
9 -10 0
10 -9 0
11 -12 0
12 -11 0
13 -14 0
14 -13 0
15 -16 0
16 -15 0
17 -18 0
18 -17 0
19 -20 0
20 -19 0
21 -22 0
22 -21 0
23 -24 0
24 -23 0
25 -26 0
26 -25 0
27 -28 0
28 -27 0
29 -30 0
30 -29 0
31 -32 0
32 -31 0
33 -34 0
34 -33 0
35 -36 0
36 -35 0
37 -38 0
38 -37 0
39 -40 0
40 -39 0
41 -42 0
42 -41 0
43 -44 0
44 -43 0
45 -46 0
46 -45 0
47 -48 0
48 -47 0
49 -50 0
50 -49 0
51 -52 0
52 -51 0
53 -54 0
54 -53 0
55 -56 0
56 -55 0
57 -58 0
58 -57 0
59 -60 0
60 -59 0
61 -62 0
62 -61 0
63 -64 0
64 -63 0
65 -66 0
66 -65 0
67 -68 0
68 -67 0
69 -70 0
70 -69 0
71 -72 0
72 -71 0
73 -74 0
74 -73 0
75 -76 0
76 -75 0
77 -78 0
78 -77 0
79 -80 0
80 -79 0
81 -82 0
82 -81 0
83 -84 0
84 -83 0
9 85 0
23 85 0
-9 -23 -85 0
5 86 0
19 86 0
-5 -19 -86 0
15 87 0
1 87 0
-15 -1 -87 0
17 88 0
88 -87 0
-17 -88 87 0
3 89 0
17 89 0
-3 -17 -89 0
3 90 0
-87 90 0
-3 87 -90 0
5 91 0
-89 -88 91 -90 0
-5 90 -91 0
-5 89 -91 0
-5 88 -91 0
19 92 0
-89 -88 -90 92 0
-19 90 -92 0
-19 89 -92 0
-19 88 -92 0
7 93 0
-86 -92 -91 93 0
-7 92 -93 0
-7 91 -93 0
-7 86 -93 0
21 94 0
-86 94 -92 -91 0
-21 -94 92 0
-21 91 -94 0
-21 86 -94 0
21 95 0
7 95 0
-21 -7 -95 0
23 96 0
96 -94 -95 -93 0
-23 -96 95 0
-23 -96 94 0
-23 -96 93 0
9 97 0
97 -94 -95 -93 0
-9 -97 95 0
-9 -97 94 0
-9 -97 93 0
25 98 0
-85 -96 -97 98 0
-25 -98 97 0
-25 -98 96 0
-25 85 -98 0
11 99 0
-85 -96 -97 99 0
-11 97 -99 0
-11 96 -99 0
-11 85 -99 0
25 100 0
11 100 0
-25 -11 -100 0
-27 100 0
-27 99 0
-27 98 0
1 101 0
15 101 0
-1 -15 -101 0
17 3 -102 0
3 -102 -101 0
17 -102 -101 0
102 -3 -17 0
-3 102 101 0
-17 102 101 0
19 5 -103 0
5 102 -103 0
19 102 -103 0
103 -5 -19 0
103 -5 -102 0
103 -19 -102 0
7 21 -104 0
21 -104 103 0
7 -104 103 0
-21 -7 104 0
104 -21 -103 0
104 -7 -103 0
9 23 -105 0
9 104 -105 0
23 104 -105 0
105 -9 -23 0
105 -9 -104 0
105 -23 -104 0
25 11 -106 0
25 -106 105 0
11 -106 105 0
-25 -11 106 0
106 -25 -105 0
106 -11 -105 0
13 27 -107 106 0
13 -27 -107 -106 0
-13 27 -107 -106 0
-13 -27 -107 106 0
107 -13 -27 -106 0
-13 27 107 106 0
13 -27 107 106 0
13 27 107 -106 0
-41 -107 0
-29 15 -108 0
-15 29 -108 0
108 -15 -29 0
15 29 108 0
-1 108 -109 0
1 -108 -109 0
-1 -108 109 0
1 108 109 0
-109 0
-27 -41 0
15 110 0
29 110 0
-15 -29 -110 0
17 31 -111 0
17 -110 -111 0
31 -110 -111 0
111 -17 -31 0
-17 110 111 0
-31 110 111 0
19 33 -112 0
33 111 -112 0
19 111 -112 0
-33 -19 112 0
112 -33 -111 0
112 -19 -111 0
35 21 -113 0
35 -113 112 0
21 -113 112 0
-35 -21 113 0
113 -35 -112 0
113 -21 -112 0
37 23 -114 0
37 -114 113 0
23 -114 113 0
-37 -23 114 0
114 -37 -113 0
114 -23 -113 0
25 39 -115 0
25 114 -115 0
39 114 -115 0
115 -25 -39 0
115 -25 -114 0
115 -39 -114 0
41 27 115 -116 0
-41 27 -115 -116 0
-27 41 -115 -116 0
-27 -41 115 -116 0
116 -27 -41 -115 0
-27 41 115 116 0
-41 27 115 116 0
41 27 -115 116 0
-55 -116 0
37 23 -117 113 0
23 -37 -113 -117 0
37 -23 -113 -117 0
-37 -23 -117 113 0
117 -23 -37 -113 0
37 -23 117 113 0
23 -37 117 113 0
37 23 -113 117 0
19 33 111 -118 0
19 -33 -111 -118 0
33 -19 -111 -118 0
-33 -19 111 -118 0
118 -19 -33 -111 0
33 -19 111 118 0
19 -33 111 118 0
19 33 -111 118 0
-108 119 0
43 119 0
108 -43 -119 0
17 31 110 -120 0
17 -31 -110 -120 0
-17 31 -110 -120 0
-17 -31 110 -120 0
120 -17 -31 -110 0
-17 31 110 120 0
17 -31 110 120 0
17 31 -110 120 0
-120 -121 -119 0
45 -120 -121 0
45 -121 -119 0
119 120 121 0
-45 120 121 0
-45 119 121 0
-122 121 118 0
47 -122 121 0
47 -122 118 0
122 -121 -118 0
-47 122 -121 0
-47 122 -118 0
35 21 -123 112 0
-35 21 -123 -112 0
35 -21 -123 -112 0
-35 -21 -123 112 0
123 -21 -35 -112 0
35 -21 123 112 0
-35 21 123 112 0
35 21 123 -112 0
122 123 -124 0
49 123 -124 0
49 122 -124 0
-122 124 -123 0
-49 124 -123 0
-49 -122 124 0
51 -125 124 0
51 -125 117 0
-125 117 124 0
125 -51 -124 0
125 -51 -117 0
125 -117 -124 0
25 39 114 -126 0
25 -39 -114 -126 0
-25 39 -114 -126 0
-25 -39 114 -126 0
126 -25 -39 -114 0
-25 39 114 126 0
25 -39 114 126 0
25 39 -114 126 0
53 126 -127 0
125 126 -127 0
53 125 -127 0
-53 -126 127 0
-125 -126 127 0
127 -53 -125 0
55 116 -128 127 0
-55 116 -128 -127 0
55 -116 -128 -127 0
-55 -116 -128 127 0
-55 -116 -127 128 0
55 -116 127 128 0
-55 116 127 128 0
55 116 -127 128 0
-69 -128 0
-43 29 -129 0
-29 43 -129 0
129 -29 -43 0
43 29 129 0
57 15 129 0
-57 15 -129 0
-57 -15 129 0
-15 57 -129 0
-41 -69 0
29 130 0
57 130 0
-29 -57 -130 0
59 31 -131 0
59 -131 -130 0
31 -131 -130 0
-59 -31 131 0
-59 130 131 0
-31 130 131 0
61 33 -132 0
33 131 -132 0
61 131 -132 0
132 -33 -61 0
132 -33 -131 0
132 -61 -131 0
35 63 -133 0
35 -133 132 0
63 -133 132 0
133 -35 -63 0
133 -35 -132 0
133 -63 -132 0
37 65 -134 0
65 -134 133 0
37 -134 133 0
-65 -37 134 0
134 -65 -133 0
134 -37 -133 0
67 39 -135 0
39 -135 134 0
67 -135 134 0
135 -39 -67 0
135 -39 -134 0
135 -67 -134 0
41 69 135 -136 0
41 -69 -135 -136 0
-41 69 -135 -136 0
-41 -69 135 -136 0
136 -41 -69 -135 0
-41 69 135 136 0
41 -69 135 136 0
41 69 -135 136 0
-83 -136 0
-57 137 0
71 137 0
57 -71 -137 0
57 -59 -138 0
-57 59 -138 0
138 -57 -59 0
59 57 138 0
-57 138 -139 0
57 -138 -139 0
-57 -138 139 0
57 138 139 0
71 -73 -140 0
73 -71 -140 0
140 -71 -73 0
73 71 140 0
-141 -140 139 0
-141 -140 -137 0
-141 -137 139 0
141 140 -139 0
141 140 137 0
141 137 -139 0
-59 142 0
-57 142 0
59 57 -142 0
-61 142 -143 0
61 -143 -142 0
-61 143 -142 0
61 142 143 0
57 144 0
-138 144 0
-57 138 -144 0
-143 144 -145 0
143 -144 -145 0
-143 145 -144 0
143 145 144 0
146 -73 0
146 -71 0
73 71 -146 0
146 -147 -75 0
75 -147 -146 0
-75 147 -146 0
75 146 147 0
-147 -148 145 0
141 -147 -148 0
141 -148 145 0
148 147 -145 0
-141 148 147 0
-141 148 -145 0
143 149 0
144 149 0
143 144 149 0
-149 -143 -144 0
-61 150 0
-142 150 0
61 142 -150 0
-63 150 -151 0
63 -150 -151 0
-63 -150 151 0
63 150 151 0
-149 151 -152 0
149 -151 -152 0
-149 -151 152 0
149 151 152 0
-75 153 0
153 -146 0
75 146 -153 0
-77 153 -154 0
77 -153 -154 0
-77 -153 154 0
77 153 154 0
152 -154 -155 0
148 -154 -155 0
148 152 -155 0
-152 155 154 0
-148 155 154 0
-148 -152 155 0
-77 156 0
-153 156 0
77 153 -156 0
-79 156 -157 0
79 -156 -157 0
-79 -156 157 0
79 156 157 0
-158 -155 157 0
-158 155 -157 0
158 -155 -157 0
158 155 157 0
-63 159 0
159 -150 0
63 150 -159 0
-65 159 -160 0
65 -159 -160 0
-65 -159 160 0
65 159 160 0
161 -151 0
149 161 0
151 -149 -161 0
-162 -160 161 0
-162 -161 160 0
162 -160 -161 0
162 161 160 0
37 -163 158 162 0
-37 -158 -163 162 0
-37 -162 -163 158 0
37 -158 -162 -163 0
-37 -158 -162 163 0
37 -162 163 158 0
37 -158 163 162 0
-37 163 158 162 0
-163 0
-13 0
-27 0
-41 0
-55 0
-69 0
-83 0
-1 164 0
-3 164 0
1 3 -164 0
-5 165 0
-164 165 0
5 164 -165 0
-7 166 0
-165 166 0
7 165 -166 0
-11 -9 0
-11 -166 0
-17 167 0
-15 167 0
17 15 -167 0
-19 168 0
168 -167 0
19 167 -168 0
-21 169 0
-168 169 0
21 168 -169 0
-23 170 0
-169 170 0
23 169 -170 0
-25 -170 0
-31 171 0
-29 171 0
31 29 -171 0
-33 172 0
-171 172 0
33 171 -172 0
-35 173 0
-172 173 0
35 172 -173 0
-37 174 0
-173 174 0
37 173 -174 0
-39 -174 0
-43 175 0
-45 175 0
43 45 -175 0
-47 176 0
-175 176 0
47 175 -176 0
-49 177 0
-176 177 0
49 176 -177 0
-51 178 0
-177 178 0
51 177 -178 0
-53 -178 0
-65 179 0
-159 179 0
65 159 -179 0
-67 -179 0
-79 180 0
180 -156 0
79 156 -180 0
-81 -180 0
-13 -27 0
-13 100 0
-13 99 0
-13 98 0
17 3 101 -181 0
-17 3 -101 -181 0
17 -3 -101 -181 0
-3 -17 101 -181 0
181 -3 -17 -101 0
17 -3 101 181 0
-17 3 101 181 0
17 3 -101 181 0
-15 1 -182 0
-1 15 -182 0
182 -1 -15 0
1 15 182 0
29 183 0
-182 183 0
-29 182 -183 0
184 -183 0
184 -181 0
-184 181 183 0
31 185 0
185 -181 0
-31 -185 181 0
31 186 0
186 -183 0
-31 -186 183 0
19 5 102 -187 0
5 -19 -102 -187 0
19 -5 -102 -187 0
-5 -19 102 -187 0
187 -5 -19 -102 0
19 -5 102 187 0
5 -19 102 187 0
19 5 -102 187 0
187 188 0
-184 -185 188 -186 0
-187 -188 186 0
185 -187 -188 0
184 -187 -188 0
33 189 0
189 -184 -185 -186 0
-33 186 -189 0
-33 185 -189 0
-33 184 -189 0
33 190 0
187 190 0
-33 -187 -190 0
7 21 -191 103 0
7 -21 -191 -103 0
21 -7 -191 -103 0
-21 -7 -191 103 0
191 -7 -21 -103 0
21 -7 191 103 0
7 -21 191 103 0
7 21 191 -103 0
191 192 0
-188 -189 -190 192 0
-191 190 -192 0
189 -191 -192 0
188 -191 -192 0
35 193 0
-188 -189 -190 193 0
-35 190 -193 0
-35 189 -193 0
-35 188 -193 0
35 194 0
191 194 0
-35 -191 -194 0
9 23 104 -195 0
9 -23 -104 -195 0
23 -9 -104 -195 0
-9 -23 104 -195 0
195 -9 -23 -104 0
23 -9 104 195 0
9 -23 104 195 0
9 23 -104 195 0
195 196 0
-192 -193 -194 196 0
-195 194 -196 0
-195 193 -196 0
-195 192 -196 0
37 197 0
-192 -193 -194 197 0
-37 194 -197 0
-37 193 -197 0
-37 192 -197 0
37 198 0
195 198 0
-37 -195 -198 0
25 11 105 -199 0
-25 11 -105 -199 0
25 -11 -105 -199 0
-25 -11 105 -199 0
199 -11 -25 -105 0
25 -11 105 199 0
-25 11 105 199 0
25 11 -105 199 0
199 200 0
200 -196 -197 -198 0
-200 198 -199 0
-200 197 -199 0
-200 196 -199 0
39 201 0
201 -196 -197 -198 0
-39 -201 198 0
-39 -201 197 0
-39 -201 196 0
39 202 0
199 202 0
-39 -199 -202 0
-41 202 0
-41 201 0
-41 200 0
-107 202 0
-107 201 0
-107 200 0
-31 29 -203 0
-29 31 -203 0
203 -29 -31 0
31 29 203 0
-203 -204 110 0
203 -204 -110 0
204 -110 -203 0
203 204 110 0
-17 15 -205 0
17 -15 -205 0
205 -15 -17 0
17 15 205 0
3 204 205 0
3 -204 -205 0
-3 -204 205 0
-3 204 -205 0
-203 -206 205 0
-203 -110 -206 0
-110 -206 205 0
203 206 -205 0
203 110 206 0
110 206 -205 0
-33 -207 171 0
33 -207 -171 0
-33 207 -171 0
33 207 171 0
-19 167 -208 0
19 -167 -208 0
-19 -167 208 0
19 167 208 0
205 -208 -209 0
-205 208 -209 0
209 -205 -208 0
205 208 209 0
-207 209 -210 0
206 209 -210 0
206 -207 -210 0
207 -209 210 0
-206 -209 210 0
-206 207 210 0
205 211 0
208 211 0
205 208 211 0
-205 -208 -211 0
-21 -212 168 0
21 -212 -168 0
-21 212 -168 0
21 212 168 0
212 -213 -211 0
-212 -213 211 0
-212 213 -211 0
212 213 211 0
-35 -214 172 0
35 -214 -172 0
-35 214 -172 0
35 214 172 0
213 -214 -215 0
-214 -215 210 0
213 -215 210 0
-213 214 215 0
214 215 -210 0
-213 215 -210 0
-37 -216 173 0
37 -216 -173 0
-37 216 -173 0
37 216 173 0
-23 -217 169 0
23 -217 -169 0
-23 217 -169 0
23 217 169 0
-212 218 0
211 218 0
212 -211 -218 0
-217 218 -219 0
217 -218 -219 0
-217 -218 219 0
217 218 219 0
-216 219 -220 0
215 219 -220 0
215 -216 -220 0
216 -219 220 0
-215 -219 220 0
-215 216 220 0
-39 -221 174 0
39 -221 -174 0
-39 221 -174 0
39 221 174 0
-220 -222 221 0
220 -222 -221 0
-220 -221 222 0
220 221 222 0
217 223 0
218 223 0
217 218 223 0
-217 -218 -223 0
-25 -224 170 0
25 -170 -224 0
-25 -170 224 0
25 224 170 0
-223 224 -225 0
223 -224 -225 0
-223 -224 225 0
223 224 225 0
11 222 225 0
11 -222 -225 0
-11 -222 225 0
-11 222 -225 0
214 -226 -210 0
-214 -226 210 0
-214 226 -210 0
214 226 210 0
7 213 226 -227 0
-7 213 -226 -227 0
-7 -213 226 -227 0
7 -213 -226 -227 0
-7 -213 -226 227 0
7 -213 226 227 0
7 213 -226 227 0
-7 213 226 227 0
-227 0
-228 220 -221 0
-228 220 -225 0
-228 -221 -225 0
228 -220 221 0
228 -220 225 0
228 221 225 0
-39 229 0
229 -174 0
39 174 -229 0
-41 229 -230 0
41 -230 -229 0
-41 230 -229 0
41 229 230 0
-228 230 -231 0
228 -230 -231 0
-228 -230 231 0
228 230 231 0
232 -223 0
232 -223 224 0
224 232 0
-232 223 -224 0
-25 233 0
233 -170 0
25 170 -233 0
27 232 233 -234 0
-27 233 -234 -232 0
27 -233 -234 -232 0
-27 232 -233 -234 0
-27 -233 234 -232 0
27 232 -233 234 0
-27 232 233 234 0
27 233 234 -232 0
13 231 -235 234 0
-13 -231 -235 234 0
-13 231 -235 -234 0
13 -231 -235 -234 0
-13 -231 -234 235 0
13 231 -234 235 0
13 -231 234 235 0
-13 231 234 235 0
-235 0
-215 216 -236 0
215 -216 -236 0
236 -215 -216 0
236 215 216 0
9 236 219 -237 0
-9 219 -236 -237 0
-9 236 -219 -237 0
9 -219 -236 -237 0
-9 -219 -236 237 0
9 236 -219 237 0
9 219 -236 237 0
-9 236 219 237 0
-237 0
-238 -206 207 0
-238 206 -207 0
238 -206 -207 0
238 206 207 0
5 -239 238 209 0
-5 -239 -238 209 0
-5 -239 238 -209 0
5 -239 -238 -209 0
-5 239 -238 -209 0
5 239 238 -209 0
5 239 -238 209 0
-5 239 238 209 0
-239 0
25 240 0
39 240 0
-25 -39 -240 0
33 241 0
19 241 0
-33 -19 -241 0
29 242 0
15 242 0
-29 -15 -242 0
31 243 0
243 -242 0
-31 242 -243 0
17 244 0
31 244 0
-17 -31 -244 0
17 245 0
245 -242 0
-17 242 -245 0
19 246 0
-244 246 -243 -245 0
-19 245 -246 0
-19 244 -246 0
-19 243 -246 0
33 247 0
-244 -243 247 -245 0
-33 -247 245 0
-33 -247 244 0
-33 243 -247 0
35 248 0
-247 -241 -246 248 0
-35 247 -248 0
-35 246 -248 0
-35 241 -248 0
21 249 0
-247 -241 -246 249 0
-21 247 -249 0
-21 246 -249 0
-21 241 -249 0
35 250 0
21 250 0
-35 -21 -250 0
37 251 0
-248 251 -249 -250 0
-37 -251 250 0
-37 -251 249 0
-37 248 -251 0
37 252 0
23 252 0
-37 -23 -252 0
23 253 0
253 -248 -249 -250 0
-23 -253 250 0
-23 -253 249 0
-23 -253 248 0
25 254 0
-252 -253 254 -251 0
-25 253 -254 0
-25 -254 252 0
-25 -254 251 0
39 255 0
-252 -253 255 -251 0
-39 253 -255 0
-39 -255 252 0
-39 -255 251 0
-41 255 0
-41 254 0
-41 240 0
-27 255 0
-27 254 0
-27 240 0
43 256 0
-108 256 0
-43 108 -256 0
45 257 0
257 -256 0
-45 -257 256 0
45 258 0
258 -120 0
-45 -258 120 0
259 -256 0
259 -120 0
-259 256 120 0
118 260 0
-259 -258 -257 260 0
259 -260 -118 0
258 -260 -118 0
257 -260 -118 0
47 261 0
-259 -258 -257 261 0
-47 259 -261 0
-47 258 -261 0
-47 257 -261 0
47 262 0
118 262 0
-47 -118 -262 0
123 263 0
-260 -261 -262 263 0
262 -263 -123 0
261 -263 -123 0
260 -263 -123 0
49 264 0
-260 -261 -262 264 0
-49 262 -264 0
-49 261 -264 0
-49 260 -264 0
49 265 0
123 265 0
-49 -123 -265 0
117 266 0
266 -263 -264 -265 0
265 -266 -117 0
-266 264 -117 0
-266 263 -117 0
51 267 0
267 -263 -264 -265 0
-51 -267 265 0
-51 -267 264 0
-51 -267 263 0
51 268 0
117 268 0
-51 -117 -268 0
126 269 0
-268 269 -267 -266 0
268 -269 -126 0
-269 267 -126 0
-269 266 -126 0
53 270 0
-268 270 -267 -266 0
-53 268 -270 0
-53 -270 267 0
-53 -270 266 0
53 271 0
126 271 0
-53 -126 -271 0
-55 271 0
-55 270 0
-55 269 0
-116 271 0
270 -116 0
269 -116 0
45 -272 119 120 0
-45 -272 120 -119 0
45 -272 -120 -119 0
-45 -272 119 -120 0
-45 272 -120 -119 0
45 272 119 -120 0
-45 272 119 120 0
45 272 120 -119 0
59 273 0
272 273 0
-59 -272 -273 0
-43 108 -274 0
43 -108 -274 0
-43 -108 274 0
43 108 274 0
57 275 0
274 275 0
-57 -274 -275 0
272 276 0
-275 276 0
-272 275 -276 0
59 277 0
-275 277 0
-59 275 -277 0
47 -278 121 118 0
-47 -278 -121 118 0
47 -278 -121 -118 0
-47 -278 121 -118 0
-47 278 -121 -118 0
47 278 121 -118 0
-47 278 121 118 0
47 278 -121 118 0
278 279 0
-273 -276 -277 279 0
277 -278 -279 0
276 -278 -279 0
273 -278 -279 0
61 280 0
-273 280 -276 -277 0
-61 -280 277 0
-61 -280 276 0
-61 -280 273 0
61 281 0
278 281 0
-61 -278 -281 0
49 122 -282 123 0
-49 -122 -282 123 0
49 -122 -282 -123 0
-49 122 -282 -123 0
-49 -122 282 -123 0
49 122 282 -123 0
-49 122 282 123 0
49 -122 282 123 0
282 283 0
-280 283 -281 -279 0
-282 -283 281 0
280 -282 -283 0
-282 -283 279 0
63 284 0
-280 284 -281 -279 0
-63 -284 281 0
-63 280 -284 0
-63 -284 279 0
63 285 0
282 285 0
-63 -282 -285 0
51 -286 117 124 0
-51 -286 117 -124 0
51 -286 -117 -124 0
-51 -286 -117 124 0
-51 286 -117 -124 0
51 286 -117 124 0
-51 286 117 124 0
51 286 117 -124 0
286 287 0
-283 -284 -285 287 0
285 -286 -287 0
284 -286 -287 0
283 -286 -287 0
65 288 0
-283 -284 -285 288 0
-65 -288 285 0
-65 -288 284 0
-65 -288 283 0
65 289 0
286 289 0
-65 -286 -289 0
53 -290 125 126 0
-53 -290 -125 126 0
53 -290 -125 -126 0
-53 -290 125 -126 0
-53 290 -125 -126 0
53 290 125 -126 0
-53 290 125 126 0
53 290 -125 126 0
290 291 0
-288 -289 -287 291 0
-290 -291 289 0
-290 -291 288 0
-290 287 -291 0
67 292 0
-288 -289 -287 292 0
-67 289 -292 0
-67 288 -292 0
-67 287 -292 0
67 293 0
290 293 0
-67 -290 -293 0
-69 293 0
-69 292 0
-69 291 0
293 -128 0
292 -128 0
291 -128 0
57 294 0
294 -129 0
-57 -294 129 0
-45 43 -295 0
-43 45 -295 0
295 -43 -45 0
43 45 295 0
29 296 0
43 296 0
-29 -43 -296 0
296 -297 203 295 0
-296 -297 203 -295 0
296 -297 -203 -295 0
-296 -297 -203 295 0
-296 297 -203 -295 0
296 297 -203 295 0
-296 297 203 295 0
296 297 203 -295 0
297 -298 -138 0
-298 -294 -138 0
297 -298 -294 0
298 -297 138 0
298 294 138 0
298 -297 294 0
203 -299 -295 0
-296 203 -299 0
-296 -299 -295 0
299 -203 295 0
299 296 -203 0
299 296 295 0
-47 -300 175 0
47 -300 -175 0
-47 300 -175 0
47 300 175 0
203 -301 -207 0
-203 -301 207 0
301 -203 -207 0
203 301 207 0
299 300 301 -302 0
-300 -299 301 -302 0
-301 -299 300 -302 0
299 -300 -301 -302 0
-300 -301 -299 302 0
299 -301 300 302 0
299 -300 301 302 0
-299 300 301 302 0
302 -303 -143 0
298 -303 -143 0
298 302 -303 0
-302 303 143 0
-298 303 143 0
-302 -298 303 0
299 -300 -304 0
-300 -301 -304 0
299 -301 -304 0
-299 300 304 0
300 301 304 0
-299 301 304 0
-49 -305 176 0
49 -305 -176 0
-49 305 -176 0
49 305 176 0
306 -203 0
306 -207 0
203 207 -306 0
-307 306 -214 0
-307 -306 214 0
-306 307 -214 0
306 307 214 0
305 304 307 -308 0
307 -305 -308 -304 0
-307 305 -308 -304 0
-307 304 -305 -308 0
-307 -305 308 -304 0
-307 305 304 308 0
304 307 -305 308 0
305 307 308 -304 0
-309 308 -151 0
-309 303 -151 0
-309 308 303 0
309 -308 151 0
309 -303 151 0
309 -308 -303 0
-310 304 -305 0
-307 -310 304 0
-307 -310 -305 0
305 310 -304 0
310 307 -304 0
305 310 307 0
-51 -311 177 0
51 -311 -177 0
-51 311 -177 0
51 311 177 0
312 -214 0
312 -306 0
214 306 -312 0
312 -313 -216 0
-313 -312 216 0
313 -312 -216 0
312 313 216 0
-314 313 311 310 0
-314 313 -310 -311 0
-314 311 -313 -310 0
-314 -313 310 -311 0
314 -313 -310 -311 0
314 311 -313 310 0
314 313 310 -311 0
314 313 311 -310 0
-315 -314 -160 0
-315 309 -160 0
-315 -314 309 0
315 314 160 0
315 -309 160 0
315 314 -309 0
-67 179 -316 0
67 -179 -316 0
-67 -179 316 0
67 179 316 0
-315 316 -317 0
315 -316 -317 0
-315 -316 317 0
315 316 317 0
313 -311 -318 0
313 310 -318 0
310 -311 -318 0
311 -313 318 0
-313 -310 318 0
311 -310 318 0
-53 178 -319 0
53 -178 -319 0
-53 -178 319 0
53 178 319 0
216 320 0
312 320 0
216 312 320 0
-312 -216 -320 0
221 -320 -321 0
-221 320 -321 0
321 -221 -320 0
221 320 321 0
318 319 321 -322 0
-318 -319 321 -322 0
-318 319 -321 -322 0
318 -319 -321 -322 0
-318 -319 -321 322 0
318 319 -321 322 0
318 -319 321 322 0
-318 319 321 322 0
25 317 322 -323 0
-25 -317 322 -323 0
-25 317 -322 -323 0
25 -317 -322 -323 0
-25 -317 -322 323 0
25 317 -322 323 0
25 -317 322 323 0
-25 317 322 323 0
-323 0
294 -138 -324 0
-294 138 -324 0
-294 -138 324 0
294 138 324 0
17 297 324 0
17 -297 -324 0
-17 297 -324 0
-17 -297 324 0
-298 143 -325 0
298 -143 -325 0
325 -143 -298 0
298 143 325 0
19 302 325 -326 0
-19 302 -325 -326 0
-19 -302 325 -326 0
19 -302 -325 -326 0
-19 -302 -325 326 0
19 -302 325 326 0
19 302 -325 326 0
-19 302 325 326 0
-326 0
-303 151 -327 0
303 -151 -327 0
327 -151 -303 0
303 151 327 0
21 308 327 -328 0
-21 308 -327 -328 0
-21 -308 327 -328 0
21 -308 -327 -328 0
-21 -308 -327 328 0
21 -308 327 328 0
21 308 -327 328 0
-21 308 327 328 0
-328 0
-309 160 -329 0
309 -160 -329 0
329 -160 -309 0
309 160 329 0
23 314 329 0
23 -314 -329 0
-23 314 -329 0
-23 -314 329 0
-316 322 -330 0
315 -316 -330 0
315 322 -330 0
316 -322 330 0
-315 316 330 0
-315 -322 330 0
-67 331 0
-179 331 0
67 179 -331 0
-69 331 -332 0
69 -331 -332 0
-69 -331 332 0
69 331 332 0
-330 332 -333 0
330 -332 -333 0
-330 -332 333 0
330 332 333 0
318 -319 -334 0
-319 -321 -334 0
318 -321 -334 0
-318 319 334 0
319 321 334 0
-318 321 334 0
-53 335 0
-178 335 0
53 178 -335 0
55 334 335 -336 0
-55 -334 335 -336 0
55 -334 -335 -336 0
-55 334 -335 -336 0
-55 -334 -335 336 0
55 334 -335 336 0
-55 334 335 336 0
55 -334 335 336 0
221 337 0
221 -320 337 0
-320 337 0
-221 320 -337 0
230 336 337 -338 0
230 -336 -337 -338 0
-230 -336 337 -338 0
-230 336 -337 -338 0
-230 -336 -337 338 0
-230 336 337 338 0
230 336 -337 338 0
230 -336 337 338 0
27 333 338 0
27 -333 -338 0
-27 -333 338 0
-27 333 -338 0
65 339 0
37 339 0
-65 -37 -339 0
31 340 0
-130 340 0
-31 130 -340 0
59 341 0
-130 341 0
-59 130 -341 0
59 342 0
31 342 0
-59 -31 -342 0
33 343 0
-340 -341 -342 343 0
-33 342 -343 0
-33 341 -343 0
-33 340 -343 0
61 344 0
-340 -341 -342 344 0
-61 342 -344 0
-61 341 -344 0
-61 340 -344 0
33 345 0
61 345 0
-33 -61 -345 0
35 346 0
-343 -344 -345 346 0
-35 345 -346 0
-35 344 -346 0
-35 343 -346 0
63 347 0
-343 -344 -345 347 0
-63 345 -347 0
-63 344 -347 0
-63 343 -347 0
35 348 0
63 348 0
-35 -63 -348 0
37 349 0
-346 -347 -348 349 0
-37 348 -349 0
-37 347 -349 0
-37 346 -349 0
65 350 0
-346 -347 -348 350 0
-65 348 -350 0
-65 347 -350 0
-65 346 -350 0
67 351 0
-339 -349 -350 351 0
-67 350 -351 0
-67 349 -351 0
-67 339 -351 0
39 352 0
67 352 0
-39 -67 -352 0
39 353 0
-339 -349 -350 353 0
-39 350 -353 0
-39 349 -353 0
-39 339 -353 0
-69 353 0
-69 352 0
-69 351 0
-41 353 0
-41 352 0
-41 351 0
-57 29 -354 0
-29 57 -354 0
354 -29 -57 0
57 29 354 0
71 355 0
-354 355 0
-71 354 -355 0
73 356 0
-355 356 0
-73 355 -356 0
59 31 130 -357 0
31 -59 -130 -357 0
59 -31 -130 -357 0
-59 -31 130 -357 0
357 -31 -59 -130 0
59 -31 130 357 0
31 -59 130 357 0
59 31 -130 357 0
-357 358 0
-355 358 0
355 357 -358 0
73 359 0
-357 359 0
-73 357 -359 0
61 33 131 -360 0
-61 33 -131 -360 0
-33 61 -131 -360 0
-33 -61 131 -360 0
360 -33 -61 -131 0
-33 61 131 360 0
-61 33 131 360 0
61 33 -131 360 0
360 361 0
-356 -358 -359 361 0
359 -360 -361 0
358 -360 -361 0
356 -360 -361 0
75 362 0
-356 -358 -359 362 0
-75 359 -362 0
-75 358 -362 0
-75 356 -362 0
75 363 0
360 363 0
-75 -360 -363 0
35 63 132 -364 0
35 -63 -132 -364 0
-35 63 -132 -364 0
-35 -63 132 -364 0
364 -35 -63 -132 0
-35 63 132 364 0
35 -63 132 364 0
35 63 -132 364 0
364 365 0
-361 -362 -363 365 0
363 -364 -365 0
362 -364 -365 0
361 -364 -365 0
77 366 0
-361 -362 -363 366 0
-77 363 -366 0
-77 362 -366 0
-77 361 -366 0
77 367 0
364 367 0
-77 -364 -367 0
37 65 133 -368 0
-65 37 -133 -368 0
-37 65 -133 -368 0
-65 -37 133 -368 0
368 -37 -65 -133 0
-37 65 133 368 0
-65 37 133 368 0
37 65 -133 368 0
368 369 0
-365 -366 -367 369 0
367 -368 -369 0
366 -368 -369 0
365 -368 -369 0
79 370 0
-365 -366 -367 370 0
-79 367 -370 0
-79 366 -370 0
-79 365 -370 0
79 371 0
368 371 0
-79 -368 -371 0
67 39 134 -372 0
39 -67 -134 -372 0
67 -39 -134 -372 0
-39 -67 134 -372 0
372 -39 -67 -134 0
67 -39 134 372 0
39 -67 134 372 0
67 39 -134 372 0
372 373 0
-369 -370 -371 373 0
371 -372 -373 0
370 -372 -373 0
369 -372 -373 0
81 374 0
-369 -370 -371 374 0
-81 371 -374 0
-81 370 -374 0
-81 369 -374 0
81 375 0
372 375 0
-81 -372 -375 0
-83 375 0
-83 374 0
-83 373 0
-136 375 0
-136 374 0
-136 373 0
-148 154 -376 0
148 -154 -376 0
-148 -154 376 0
148 154 376 0
35 152 376 -377 0
-35 152 -376 -377 0
-35 -152 376 -377 0
35 -152 -376 -377 0
-35 -152 -376 377 0
35 -152 376 377 0
35 152 -376 377 0
-35 152 376 377 0
-377 0
29 57 71 0
29 -57 -71 0
-29 57 -71 0
-29 -57 71 0
162 -157 -378 0
155 -157 -378 0
162 155 -378 0
-162 157 378 0
-155 157 378 0
-162 -155 378 0
160 379 0
161 379 0
160 161 379 0
-160 -161 -379 0
316 -379 -380 0
-316 379 -380 0
380 -316 -379 0
316 379 380 0
-81 180 -381 0
81 -180 -381 0
-81 -180 381 0
81 180 381 0
-380 -381 -382 0
378 -381 -382 0
378 -380 -382 0
380 381 382 0
-378 381 382 0
-378 380 382 0
-81 383 0
-180 383 0
81 180 -383 0
83 382 383 -384 0
-83 -382 383 -384 0
83 -382 -383 -384 0
-83 382 -383 -384 0
-83 -382 -383 384 0
83 382 -383 384 0
-83 382 383 384 0
83 -382 383 384 0
316 385 0
-379 385 0
316 -379 385 0
-316 379 -385 0
332 -385 -386 0
-332 385 -386 0
386 -332 -385 0
332 385 386 0
41 384 386 -387 0
-41 -384 386 -387 0
-41 384 -386 -387 0
41 -384 -386 -387 0
-41 -384 -386 387 0
41 384 -386 387 0
41 -384 386 387 0
-41 384 386 387 0
-387 0
-141 147 -388 0
141 -147 -388 0
-141 -147 388 0
141 147 388 0
33 145 388 -389 0
-33 145 -388 -389 0
-33 -145 388 -389 0
33 -145 -388 -389 0
-33 -145 -388 389 0
33 -145 388 389 0
33 145 -388 389 0
-33 145 388 389 0
-389 0
-140 137 -390 0
140 -137 -390 0
390 -137 -140 0
140 137 390 0
31 139 390 0
31 -139 -390 0
-31 139 -390 0
-31 -139 390 0
-378 381 -391 0
378 -381 -391 0
-378 -381 391 0
378 381 391 0
39 380 391 0
39 -380 -391 0
-39 380 -391 0
-39 -380 391 0
